(set-info :smt-lib-version 2.6)
(set-info :category "crafted")
(set-logic QF_FFA)
(define-sort FF0 () (_ FiniteField 52435875175126190479447740508185965837690552500527637822603658699938581184513))
(declare-fun return_n0_alt () FF0)
(declare-fun mul_n11_alt () FF0)
(declare-fun mul_n85_alt () FF0)
(declare-fun mul_n52_alt () FF0)
(declare-fun mul_n68_alt () FF0)
(declare-fun mul_n84_alt () FF0)
(declare-fun mul_n69_alt () FF0)
(declare-fun mul_n83_alt () FF0)
(declare-fun mul_n30_alt () FF0)
(declare-fun mul_n70_alt () FF0)
(declare-fun mul_n82_alt () FF0)
(declare-fun mul_n75_alt () FF0)
(declare-fun mul_n81_alt () FF0)
(declare-fun f_n1_alt () FF0)
(declare-fun mul_n34_alt () FF0)
(declare-fun mul_n33_alt () FF0)
(declare-fun mul_n80_alt () FF0)
(declare-fun mul_n57_alt () FF0)
(declare-fun mul_n79_alt () FF0)
(declare-fun e_n2_alt () FF0)
(declare-fun mul_n78_alt () FF0)
(declare-fun mul_n76_alt () FF0)
(declare-fun mul_n77_alt () FF0)
(declare-fun mul_n51_alt () FF0)
(declare-fun mul_n66_alt () FF0)
(declare-fun mul_n53_alt () FF0)
(declare-fun mul_n45_alt () FF0)
(declare-fun mul_n28_alt () FF0)
(declare-fun mul_n74_alt () FF0)
(declare-fun mul_n73_alt () FF0)
(declare-fun mul_n72_alt () FF0)
(declare-fun mul_n67_alt () FF0)
(declare-fun mul_n71_alt () FF0)
(declare-fun mul_n65_alt () FF0)
(declare-fun mul_n9_alt () FF0)
(declare-fun mul_n17_alt () FF0)
(declare-fun mul_n58_alt () FF0)
(declare-fun mul_n64_alt () FF0)
(declare-fun mul_n63_alt () FF0)
(declare-fun c_n4_alt () FF0)
(declare-fun mul_n62_alt () FF0)
(declare-fun mul_n61_alt () FF0)
(declare-fun mul_n60_alt () FF0)
(declare-fun mul_n59_alt () FF0)
(declare-fun h_n5_alt () FF0)
(declare-fun mul_n56_alt () FF0)
(declare-fun mul_n14_alt () FF0)
(declare-fun mul_n55_alt () FF0)
(declare-fun mul_n54_alt () FF0)
(declare-fun mul_n15_alt () FF0)
(declare-fun a_n8_alt () FF0)
(declare-fun mul_n50_alt () FF0)
(declare-fun mul_n16_alt () FF0)
(declare-fun mul_n49_alt () FF0)
(declare-fun mul_n48_alt () FF0)
(declare-fun mul_n47_alt () FF0)
(declare-fun mul_n46_alt () FF0)
(declare-fun mul_n44_alt () FF0)
(declare-fun mul_n43_alt () FF0)
(declare-fun mul_n42_alt () FF0)
(declare-fun mul_n41_alt () FF0)
(declare-fun mul_n40_alt () FF0)
(declare-fun mul_n39_alt () FF0)
(declare-fun b_n6_alt () FF0)
(declare-fun mul_n38_alt () FF0)
(declare-fun mul_n37_alt () FF0)
(declare-fun mul_n36_alt () FF0)
(declare-fun mul_n35_alt () FF0)
(declare-fun g_n7_alt () FF0)
(declare-fun mul_n32_alt () FF0)
(declare-fun mul_n31_alt () FF0)
(declare-fun mul_n29_alt () FF0)
(declare-fun mul_n27_alt () FF0)
(declare-fun mul_n26_alt () FF0)
(declare-fun mul_n25_alt () FF0)
(declare-fun mul_n24_alt () FF0)
(declare-fun mul_n23_alt () FF0)
(declare-fun mul_n22_alt () FF0)
(declare-fun mul_n21_alt () FF0)
(declare-fun d_n3_alt () FF0)
(declare-fun mul_n20_alt () FF0)
(declare-fun mul_n19_alt () FF0)
(declare-fun mul_n18_alt () FF0)
(declare-fun mul_n13_alt () FF0)
(declare-fun mul_n12_alt () FF0)
(declare-fun mul_n10_alt () FF0)
(declare-fun return_n0 () FF0)
(declare-fun mul_n11 () FF0)
(declare-fun mul_n85 () FF0)
(declare-fun mul_n52 () FF0)
(declare-fun mul_n68 () FF0)
(declare-fun mul_n84 () FF0)
(declare-fun mul_n69 () FF0)
(declare-fun mul_n83 () FF0)
(declare-fun mul_n30 () FF0)
(declare-fun mul_n70 () FF0)
(declare-fun mul_n82 () FF0)
(declare-fun mul_n75 () FF0)
(declare-fun mul_n81 () FF0)
(declare-fun f_n1 () FF0)
(declare-fun mul_n34 () FF0)
(declare-fun mul_n33 () FF0)
(declare-fun mul_n80 () FF0)
(declare-fun mul_n57 () FF0)
(declare-fun mul_n79 () FF0)
(declare-fun e_n2 () FF0)
(declare-fun mul_n78 () FF0)
(declare-fun mul_n76 () FF0)
(declare-fun mul_n77 () FF0)
(declare-fun mul_n51 () FF0)
(declare-fun mul_n66 () FF0)
(declare-fun mul_n53 () FF0)
(declare-fun mul_n45 () FF0)
(declare-fun mul_n28 () FF0)
(declare-fun mul_n74 () FF0)
(declare-fun mul_n73 () FF0)
(declare-fun mul_n72 () FF0)
(declare-fun mul_n67 () FF0)
(declare-fun mul_n71 () FF0)
(declare-fun mul_n65 () FF0)
(declare-fun mul_n9 () FF0)
(declare-fun mul_n17 () FF0)
(declare-fun mul_n58 () FF0)
(declare-fun mul_n64 () FF0)
(declare-fun mul_n63 () FF0)
(declare-fun c_n4 () FF0)
(declare-fun mul_n62 () FF0)
(declare-fun mul_n61 () FF0)
(declare-fun mul_n60 () FF0)
(declare-fun mul_n59 () FF0)
(declare-fun h_n5 () FF0)
(declare-fun mul_n56 () FF0)
(declare-fun mul_n14 () FF0)
(declare-fun mul_n55 () FF0)
(declare-fun mul_n54 () FF0)
(declare-fun mul_n15 () FF0)
(declare-fun a_n8 () FF0)
(declare-fun mul_n50 () FF0)
(declare-fun mul_n16 () FF0)
(declare-fun mul_n49 () FF0)
(declare-fun mul_n48 () FF0)
(declare-fun mul_n47 () FF0)
(declare-fun mul_n46 () FF0)
(declare-fun mul_n44 () FF0)
(declare-fun mul_n43 () FF0)
(declare-fun mul_n42 () FF0)
(declare-fun mul_n41 () FF0)
(declare-fun mul_n40 () FF0)
(declare-fun mul_n39 () FF0)
(declare-fun b_n6 () FF0)
(declare-fun mul_n38 () FF0)
(declare-fun mul_n37 () FF0)
(declare-fun mul_n36 () FF0)
(declare-fun mul_n35 () FF0)
(declare-fun g_n7 () FF0)
(declare-fun mul_n32 () FF0)
(declare-fun mul_n31 () FF0)
(declare-fun mul_n29 () FF0)
(declare-fun mul_n27 () FF0)
(declare-fun mul_n26 () FF0)
(declare-fun mul_n25 () FF0)
(declare-fun mul_n24 () FF0)
(declare-fun mul_n23 () FF0)
(declare-fun mul_n22 () FF0)
(declare-fun mul_n21 () FF0)
(declare-fun d_n3 () FF0)
(declare-fun mul_n20 () FF0)
(declare-fun mul_n19 () FF0)
(declare-fun mul_n18 () FF0)
(declare-fun mul_n13 () FF0)
(declare-fun mul_n12 () FF0)
(declare-fun mul_n10 () FF0)
(assert 
  (let ((let0 (as ff1 FF0)))
  (let ((let1 (as ff52435875175126190479447740508185965837690552500527637822603658699938581184512 FF0)))
  (let ((let2 return_n0_alt))
  (let ((let3 (ff.mul let2 let1)))
  (let ((let4 (ff.add let3 let0)))
  (let ((let5 mul_n11_alt))
  (let ((let6 mul_n85_alt))
  (let ((let7 (ff.mul let6 let5)))
  (let ((let8 (= let7 let4)))
  (let ((let9 mul_n52_alt))
  (let ((let10 mul_n68_alt))
  (let ((let11 (ff.mul let10 let1)))
  (let ((let12 (ff.add let11 let9)))
  (let ((let13 mul_n84_alt))
  (let ((let14 (ff.mul let13 let12)))
  (let ((let15 (= let14 let6)))
  (let ((let16 mul_n69_alt))
  (let ((let17 mul_n83_alt))
  (let ((let18 (ff.mul let17 let16)))
  (let ((let19 (= let18 let13)))
  (let ((let20 mul_n30_alt))
  (let ((let21 (ff.mul let20 let1)))
  (let ((let22 mul_n70_alt))
  (let ((let23 (ff.mul let22 let1)))
  (let ((let24 (ff.add let23 let21 let0)))
  (let ((let25 mul_n82_alt))
  (let ((let26 (ff.mul let25 let24)))
  (let ((let27 (= let26 let17)))
  (let ((let28 mul_n75_alt))
  (let ((let29 mul_n81_alt))
  (let ((let30 (ff.mul let29 let1)))
  (let ((let31 (ff.add let30 let0)))
  (let ((let32 (ff.mul let31 let28)))
  (let ((let33 (= let32 let25)))
  (let ((let34 f_n1_alt))
  (let ((let35 (ff.mul let34 let1)))
  (let ((let36 mul_n34_alt))
  (let ((let37 mul_n33_alt))
  (let ((let38 (ff.add let37 let36 let35)))
  (let ((let39 mul_n80_alt))
  (let ((let40 (ff.mul let39 let38)))
  (let ((let41 (= let40 let29)))
  (let ((let42 mul_n57_alt))
  (let ((let43 mul_n79_alt))
  (let ((let44 (ff.mul let43 let42)))
  (let ((let45 (= let44 let39)))
  (let ((let46 e_n2_alt))
  (let ((let47 mul_n78_alt))
  (let ((let48 (ff.mul let47 let46)))
  (let ((let49 (= let48 let43)))
  (let ((let50 mul_n76_alt))
  (let ((let51 (ff.mul let50 let1)))
  (let ((let52 (ff.add let51 let0)))
  (let ((let53 mul_n77_alt))
  (let ((let54 (ff.mul let53 let52)))
  (let ((let55 (= let54 let47)))
  (let ((let56 mul_n51_alt))
  (let ((let57 mul_n66_alt))
  (let ((let58 mul_n53_alt))
  (let ((let59 (ff.add let58 let57 let46 let56 let1)))
  (let ((let60 mul_n45_alt))
  (let ((let61 (ff.mul let60 let1)))
  (let ((let62 (ff.add let61 let0)))
  (let ((let63 (ff.mul let62 let59)))
  (let ((let64 (= let63 let53)))
  (let ((let65 mul_n28_alt))
  (let ((let66 (ff.mul let65 let1)))
  (let ((let67 (ff.add let66 let0)))
  (let ((let68 (ff.mul let20 let67)))
  (let ((let69 (= let68 let50)))
  (let ((let70 mul_n74_alt))
  (let ((let71 (ff.mul let70 let62)))
  (let ((let72 (= let71 let28)))
  (let ((let73 mul_n73_alt))
  (let ((let74 (ff.mul let73 let37)))
  (let ((let75 (= let74 let70)))
  (let ((let76 (ff.mul let56 let1)))
  (let ((let77 (ff.add let76 let0)))
  (let ((let78 mul_n72_alt))
  (let ((let79 (ff.mul let78 let77)))
  (let ((let80 (= let79 let73)))
  (let ((let81 mul_n67_alt))
  (let ((let82 mul_n71_alt))
  (let ((let83 (ff.mul let82 let81)))
  (let ((let84 (= let83 let78)))
  (let ((let85 (as ff2 FF0)))
  (let ((let86 (ff.mul let46 let1)))
  (let ((let87 (ff.mul let57 let1)))
  (let ((let88 (ff.mul let58 let1)))
  (let ((let89 (ff.add let88 let87 let86 let76 let85)))
  (let ((let90 (ff.mul let56 let89)))
  (let ((let91 (= let90 let82)))
  (let ((let92 (ff.mul let42 let1)))
  (let ((let93 (ff.add let92 let21 let0)))
  (let ((let94 mul_n65_alt))
  (let ((let95 (ff.mul let94 let93)))
  (let ((let96 (= let95 let22)))
  (let ((let97 (ff.mul let36 let1)))
  (let ((let98 (ff.mul let37 let1)))
  (let ((let99 (ff.add let98 let97 let34 let0)))
  (let ((let100 mul_n9_alt))
  (let ((let101 (ff.mul let100 let99)))
  (let ((let102 (= let101 let16)))
  (let ((let103 (ff.add let9 let94 let1)))
  (let ((let104 (ff.mul let81 let1)))
  (let ((let105 (ff.add let104 let0)))
  (let ((let106 (ff.mul let105 let103)))
  (let ((let107 (= let106 let10)))
  (let ((let108 mul_n17_alt))
  (let ((let109 (ff.mul let108 let89)))
  (let ((let110 (= let109 let81)))
  (let ((let111 mul_n58_alt))
  (let ((let112 (ff.add let88 let111 let86 let42 let100 let76)))
  (let ((let113 (ff.mul let94 let112)))
  (let ((let114 (= let113 let57)))
  (let ((let115 (ff.add let58 let46 let56 let1)))
  (let ((let116 mul_n64_alt))
  (let ((let117 (ff.mul let116 let115)))
  (let ((let118 (= let117 let94)))
  (let ((let119 (ff.add let42 let111 let100 let1)))
  (let ((let120 mul_n63_alt))
  (let ((let121 (ff.mul let120 let119)))
  (let ((let122 (= let121 let116)))
  (let ((let123 c_n4_alt))
  (let ((let124 mul_n62_alt))
  (let ((let125 (ff.mul let124 let123)))
  (let ((let126 (= let125 let120)))
  (let ((let127 mul_n61_alt))
  (let ((let128 (ff.mul let127 let62)))
  (let ((let129 (= let128 let124)))
  (let ((let130 mul_n60_alt))
  (let ((let131 (ff.mul let130 let56)))
  (let ((let132 (= let131 let127)))
  (let ((let133 mul_n59_alt))
  (let ((let134 (ff.mul let133 let38)))
  (let ((let135 (= let134 let130)))
  (let ((let136 (ff.mul let9 let1)))
  (let ((let137 (ff.add let136 let0)))
  (let ((let138 (ff.mul let62 let137)))
  (let ((let139 (= let138 let133)))
  (let ((let140 (ff.mul let100 let1)))
  (let ((let141 (ff.add let140 let0)))
  (let ((let142 (as ff52435875175126190479447740508185965837690552500527637822603658699938581184511 FF0)))
  (let ((let143 (ff.mul let42 let142)))
  (let ((let144 (ff.add let143 let85)))
  (let ((let145 (ff.mul let144 let141)))
  (let ((let146 (= let145 let111)))
  (let ((let147 h_n5_alt))
  (let ((let148 (ff.mul let147 let1)))
  (let ((let149 (ff.add let148 let0)))
  (let ((let150 mul_n56_alt))
  (let ((let151 (ff.mul let150 let149)))
  (let ((let152 (= let151 let42)))
  (let ((let153 mul_n14_alt))
  (let ((let154 mul_n55_alt))
  (let ((let155 (ff.mul let154 let153)))
  (let ((let156 (= let155 let150)))
  (let ((let157 (ff.add let88 let86 let76 let85)))
  (let ((let158 mul_n54_alt))
  (let ((let159 (ff.mul let158 let157)))
  (let ((let160 (= let159 let154)))
  (let ((let161 (ff.mul let123 let1)))
  (let ((let162 (ff.add let161 let0)))
  (let ((let163 mul_n15_alt))
  (let ((let164 (ff.mul let163 let162)))
  (let ((let165 (= let164 let158)))
  (let ((let166 (ff.add let86 let0)))
  (let ((let167 (ff.mul let56 let142)))
  (let ((let168 (ff.add let167 let85)))
  (let ((let169 (ff.mul let168 let166)))
  (let ((let170 (= let169 let58)))
  (let ((let171 a_n8_alt))
  (let ((let172 (ff.mul let171 let1)))
  (let ((let173 (ff.add let172 let0)))
  (let ((let174 (ff.mul let173 let77)))
  (let ((let175 (= let174 let9)))
  (let ((let176 mul_n50_alt))
  (let ((let177 (ff.mul let176 let153)))
  (let ((let178 (= let177 let56)))
  (let ((let179 mul_n16_alt))
  (let ((let180 mul_n49_alt))
  (let ((let181 (ff.mul let180 let179)))
  (let ((let182 (= let181 let176)))
  (let ((let183 (ff.add let35 let0)))
  (let ((let184 mul_n48_alt))
  (let ((let185 (ff.mul let184 let183)))
  (let ((let186 (= let185 let180)))
  (let ((let187 mul_n47_alt))
  (let ((let188 (ff.mul let187 let62)))
  (let ((let189 (= let188 let184)))
  (let ((let190 mul_n46_alt))
  (let ((let191 (ff.mul let190 let163)))
  (let ((let192 (= let191 let187)))
  (let ((let193 (ff.mul let62 let166)))
  (let ((let194 (= let193 let190)))
  (let ((let195 (ff.mul let108 let1)))
  (let ((let196 (ff.add let195 let0)))
  (let ((let197 mul_n44_alt))
  (let ((let198 (ff.mul let197 let196)))
  (let ((let199 (= let198 let60)))
  (let ((let200 mul_n43_alt))
  (let ((let201 (ff.mul let200 let141)))
  (let ((let202 (= let201 let197)))
  (let ((let203 mul_n42_alt))
  (let ((let204 (ff.mul let203 let141)))
  (let ((let205 (= let204 let200)))
  (let ((let206 mul_n41_alt))
  (let ((let207 (ff.mul let206 let20)))
  (let ((let208 (= let207 let203)))
  (let ((let209 (ff.add let98 let0)))
  (let ((let210 mul_n40_alt))
  (let ((let211 (ff.mul let210 let209)))
  (let ((let212 (= let211 let206)))
  (let ((let213 mul_n39_alt))
  (let ((let214 (ff.mul let213 let196)))
  (let ((let215 (= let214 let210)))
  (let ((let216 b_n6_alt))
  (let ((let217 mul_n38_alt))
  (let ((let218 (ff.mul let217 let216)))
  (let ((let219 (= let218 let213)))
  (let ((let220 mul_n37_alt))
  (let ((let221 (ff.mul let220 let209)))
  (let ((let222 (= let221 let217)))
  (let ((let223 mul_n36_alt))
  (let ((let224 (ff.mul let223 let216)))
  (let ((let225 (= let224 let220)))
  (let ((let226 mul_n35_alt))
  (let ((let227 (ff.mul let226 let38)))
  (let ((let228 (= let227 let223)))
  (let ((let229 (ff.mul let100 let171)))
  (let ((let230 (= let229 let226)))
  (let ((let231 (ff.mul let37 let142)))
  (let ((let232 (ff.add let231 let85)))
  (let ((let233 (ff.mul let232 let34)))
  (let ((let234 (= let233 let36)))
  (let ((let235 g_n7_alt))
  (let ((let236 (ff.mul let235 let1)))
  (let ((let237 (ff.add let236 let0)))
  (let ((let238 mul_n32_alt))
  (let ((let239 (ff.mul let238 let237)))
  (let ((let240 (= let239 let37)))
  (let ((let241 (ff.add let21 let0)))
  (let ((let242 mul_n31_alt))
  (let ((let243 (ff.mul let242 let241)))
  (let ((let244 (= let243 let238)))
  (let ((let245 (ff.mul let67 let162)))
  (let ((let246 (= let245 let242)))
  (let ((let247 mul_n29_alt))
  (let ((let248 (ff.mul let247 let65)))
  (let ((let249 (= let248 let20)))
  (let ((let250 (ff.mul let179 let1)))
  (let ((let251 (ff.add let250 let0)))
  (let ((let252 (ff.mul let100 let251)))
  (let ((let253 (= let252 let247)))
  (let ((let254 mul_n27_alt))
  (let ((let255 mul_n26_alt))
  (let ((let256 (ff.mul let255 let34)))
  (let ((let257 (= let256 let254)))
  (let ((let258 mul_n25_alt))
  (let ((let259 (ff.mul let258 let235)))
  (let ((let260 (= let259 let255)))
  (let ((let261 mul_n24_alt))
  (let ((let262 (ff.mul let261 let216)))
  (let ((let263 (= let262 let258)))
  (let ((let264 (ff.mul let153 let1)))
  (let ((let265 (ff.add let264 let0)))
  (let ((let266 mul_n23_alt))
  (let ((let267 (ff.mul let266 let265)))
  (let ((let268 (= let267 let261)))
  (let ((let269 mul_n22_alt))
  (let ((let270 (ff.mul let269 let123)))
  (let ((let271 (= let270 let266)))
  (let ((let272 mul_n21_alt))
  (let ((let273 (ff.mul let272 let171)))
  (let ((let274 (= let273 let269)))
  (let ((let275 d_n3_alt))
  (let ((let276 mul_n20_alt))
  (let ((let277 (ff.mul let276 let275)))
  (let ((let278 (= let277 let272)))
  (let ((let279 mul_n19_alt))
  (let ((let280 (ff.mul let279 let147)))
  (let ((let281 (= let280 let276)))
  (let ((let282 mul_n18_alt))
  (let ((let283 (ff.mul let282 let166)))
  (let ((let284 (= let283 let279)))
  (let ((let285 (ff.mul let163 let1)))
  (let ((let286 (ff.add let285 let0)))
  (let ((let287 (ff.mul let286 let34)))
  (let ((let288 (= let287 let282)))
  (let ((let289 (ff.mul let251 let149)))
  (let ((let290 (= let289 let108)))
  (let ((let291 (ff.mul let265 let163)))
  (let ((let292 (= let291 let179)))
  (let ((let293 (ff.mul let275 let1)))
  (let ((let294 (ff.add let293 let0)))
  (let ((let295 (ff.mul let235 let294)))
  (let ((let296 (= let295 let163)))
  (let ((let297 mul_n13_alt))
  (let ((let298 (ff.mul let297 let166)))
  (let ((let299 (= let298 let153)))
  (let ((let300 mul_n12_alt))
  (let ((let301 (ff.mul let300 let173)))
  (let ((let302 (= let301 let297)))
  (let ((let303 (ff.mul let216 let1)))
  (let ((let304 (ff.add let303 let0)))
  (let ((let305 (ff.mul let304 let162)))
  (let ((let306 (= let305 let300)))
  (let ((let307 mul_n10_alt))
  (let ((let308 (ff.add let100 let307 let293)))
  (let ((let309 (ff.mul let308 let46)))
  (let ((let310 (= let309 let5)))
  (let ((let311 (ff.mul let275 let85)))
  (let ((let312 (ff.mul let311 let141)))
  (let ((let313 (= let312 let307)))
  (let ((let314 (ff.mul let275 let147)))
  (let ((let315 (= let314 let100)))
  (let ((let316 (and let315 let313 let310 let306 let302 let299 let296 let292 let290 let288 let284 let281 let278 let274 let271 let268 let263 let260 let257 let253 let249 let246 let244 let240 let234 let230 let228 let225 let222 let219 let215 let212 let208 let205 let202 let199 let194 let192 let189 let186 let182 let178 let175 let170 let165 let160 let156 let152 let146 let139 let135 let132 let129 let126 let122 let118 let114 let110 let107 let102 let96 let91 let84 let80 let75 let72 let69 let64 let55 let49 let45 let41 let33 let27 let19 let15 let8)))
  (let ((let317 return_n0))
  (let ((let318 (ff.mul let317 let1)))
  (let ((let319 (ff.add let318 let0)))
  (let ((let320 mul_n11))
  (let ((let321 mul_n85))
  (let ((let322 (ff.mul let321 let320)))
  (let ((let323 (= let322 let319)))
  (let ((let324 mul_n52))
  (let ((let325 mul_n68))
  (let ((let326 (ff.mul let325 let1)))
  (let ((let327 (ff.add let326 let324)))
  (let ((let328 mul_n84))
  (let ((let329 (ff.mul let328 let327)))
  (let ((let330 (= let329 let321)))
  (let ((let331 mul_n69))
  (let ((let332 mul_n83))
  (let ((let333 (ff.mul let332 let331)))
  (let ((let334 (= let333 let328)))
  (let ((let335 mul_n30))
  (let ((let336 (ff.mul let335 let1)))
  (let ((let337 mul_n70))
  (let ((let338 (ff.mul let337 let1)))
  (let ((let339 (ff.add let338 let336 let0)))
  (let ((let340 mul_n82))
  (let ((let341 (ff.mul let340 let339)))
  (let ((let342 (= let341 let332)))
  (let ((let343 mul_n75))
  (let ((let344 mul_n81))
  (let ((let345 (ff.mul let344 let1)))
  (let ((let346 (ff.add let345 let0)))
  (let ((let347 (ff.mul let346 let343)))
  (let ((let348 (= let347 let340)))
  (let ((let349 f_n1))
  (let ((let350 (ff.mul let349 let1)))
  (let ((let351 mul_n34))
  (let ((let352 mul_n33))
  (let ((let353 (ff.add let352 let351 let350)))
  (let ((let354 mul_n80))
  (let ((let355 (ff.mul let354 let353)))
  (let ((let356 (= let355 let344)))
  (let ((let357 mul_n57))
  (let ((let358 mul_n79))
  (let ((let359 (ff.mul let358 let357)))
  (let ((let360 (= let359 let354)))
  (let ((let361 e_n2))
  (let ((let362 mul_n78))
  (let ((let363 (ff.mul let362 let361)))
  (let ((let364 (= let363 let358)))
  (let ((let365 mul_n76))
  (let ((let366 (ff.mul let365 let1)))
  (let ((let367 (ff.add let366 let0)))
  (let ((let368 mul_n77))
  (let ((let369 (ff.mul let368 let367)))
  (let ((let370 (= let369 let362)))
  (let ((let371 mul_n51))
  (let ((let372 mul_n66))
  (let ((let373 mul_n53))
  (let ((let374 (ff.add let373 let372 let361 let371 let1)))
  (let ((let375 mul_n45))
  (let ((let376 (ff.mul let375 let1)))
  (let ((let377 (ff.add let376 let0)))
  (let ((let378 (ff.mul let377 let374)))
  (let ((let379 (= let378 let368)))
  (let ((let380 mul_n28))
  (let ((let381 (ff.mul let380 let1)))
  (let ((let382 (ff.add let381 let0)))
  (let ((let383 (ff.mul let335 let382)))
  (let ((let384 (= let383 let365)))
  (let ((let385 mul_n74))
  (let ((let386 (ff.mul let385 let377)))
  (let ((let387 (= let386 let343)))
  (let ((let388 mul_n73))
  (let ((let389 (ff.mul let388 let352)))
  (let ((let390 (= let389 let385)))
  (let ((let391 (ff.mul let371 let1)))
  (let ((let392 (ff.add let391 let0)))
  (let ((let393 mul_n72))
  (let ((let394 (ff.mul let393 let392)))
  (let ((let395 (= let394 let388)))
  (let ((let396 mul_n67))
  (let ((let397 mul_n71))
  (let ((let398 (ff.mul let397 let396)))
  (let ((let399 (= let398 let393)))
  (let ((let400 (ff.mul let361 let1)))
  (let ((let401 (ff.mul let372 let1)))
  (let ((let402 (ff.mul let373 let1)))
  (let ((let403 (ff.add let402 let401 let400 let391 let85)))
  (let ((let404 (ff.mul let371 let403)))
  (let ((let405 (= let404 let397)))
  (let ((let406 (ff.mul let357 let1)))
  (let ((let407 (ff.add let406 let336 let0)))
  (let ((let408 mul_n65))
  (let ((let409 (ff.mul let408 let407)))
  (let ((let410 (= let409 let337)))
  (let ((let411 (ff.mul let351 let1)))
  (let ((let412 (ff.mul let352 let1)))
  (let ((let413 (ff.add let412 let411 let349 let0)))
  (let ((let414 mul_n9))
  (let ((let415 (ff.mul let414 let413)))
  (let ((let416 (= let415 let331)))
  (let ((let417 (ff.add let324 let408 let1)))
  (let ((let418 (ff.mul let396 let1)))
  (let ((let419 (ff.add let418 let0)))
  (let ((let420 (ff.mul let419 let417)))
  (let ((let421 (= let420 let325)))
  (let ((let422 mul_n17))
  (let ((let423 (ff.mul let422 let403)))
  (let ((let424 (= let423 let396)))
  (let ((let425 mul_n58))
  (let ((let426 (ff.add let402 let425 let400 let357 let414 let391)))
  (let ((let427 (ff.mul let408 let426)))
  (let ((let428 (= let427 let372)))
  (let ((let429 (ff.add let373 let361 let371 let1)))
  (let ((let430 mul_n64))
  (let ((let431 (ff.mul let430 let429)))
  (let ((let432 (= let431 let408)))
  (let ((let433 (ff.add let357 let425 let414 let1)))
  (let ((let434 mul_n63))
  (let ((let435 (ff.mul let434 let433)))
  (let ((let436 (= let435 let430)))
  (let ((let437 c_n4))
  (let ((let438 mul_n62))
  (let ((let439 (ff.mul let438 let437)))
  (let ((let440 (= let439 let434)))
  (let ((let441 mul_n61))
  (let ((let442 (ff.mul let441 let377)))
  (let ((let443 (= let442 let438)))
  (let ((let444 mul_n60))
  (let ((let445 (ff.mul let444 let371)))
  (let ((let446 (= let445 let441)))
  (let ((let447 mul_n59))
  (let ((let448 (ff.mul let447 let353)))
  (let ((let449 (= let448 let444)))
  (let ((let450 (ff.mul let324 let1)))
  (let ((let451 (ff.add let450 let0)))
  (let ((let452 (ff.mul let377 let451)))
  (let ((let453 (= let452 let447)))
  (let ((let454 (ff.mul let414 let1)))
  (let ((let455 (ff.add let454 let0)))
  (let ((let456 (ff.mul let357 let142)))
  (let ((let457 (ff.add let456 let85)))
  (let ((let458 (ff.mul let457 let455)))
  (let ((let459 (= let458 let425)))
  (let ((let460 h_n5))
  (let ((let461 (ff.mul let460 let1)))
  (let ((let462 (ff.add let461 let0)))
  (let ((let463 mul_n56))
  (let ((let464 (ff.mul let463 let462)))
  (let ((let465 (= let464 let357)))
  (let ((let466 mul_n14))
  (let ((let467 mul_n55))
  (let ((let468 (ff.mul let467 let466)))
  (let ((let469 (= let468 let463)))
  (let ((let470 (ff.add let402 let400 let391 let85)))
  (let ((let471 mul_n54))
  (let ((let472 (ff.mul let471 let470)))
  (let ((let473 (= let472 let467)))
  (let ((let474 (ff.mul let437 let1)))
  (let ((let475 (ff.add let474 let0)))
  (let ((let476 mul_n15))
  (let ((let477 (ff.mul let476 let475)))
  (let ((let478 (= let477 let471)))
  (let ((let479 (ff.add let400 let0)))
  (let ((let480 (ff.mul let371 let142)))
  (let ((let481 (ff.add let480 let85)))
  (let ((let482 (ff.mul let481 let479)))
  (let ((let483 (= let482 let373)))
  (let ((let484 a_n8))
  (let ((let485 (ff.mul let484 let1)))
  (let ((let486 (ff.add let485 let0)))
  (let ((let487 (ff.mul let486 let392)))
  (let ((let488 (= let487 let324)))
  (let ((let489 mul_n50))
  (let ((let490 (ff.mul let489 let466)))
  (let ((let491 (= let490 let371)))
  (let ((let492 mul_n16))
  (let ((let493 mul_n49))
  (let ((let494 (ff.mul let493 let492)))
  (let ((let495 (= let494 let489)))
  (let ((let496 (ff.add let350 let0)))
  (let ((let497 mul_n48))
  (let ((let498 (ff.mul let497 let496)))
  (let ((let499 (= let498 let493)))
  (let ((let500 mul_n47))
  (let ((let501 (ff.mul let500 let377)))
  (let ((let502 (= let501 let497)))
  (let ((let503 mul_n46))
  (let ((let504 (ff.mul let503 let476)))
  (let ((let505 (= let504 let500)))
  (let ((let506 (ff.mul let377 let479)))
  (let ((let507 (= let506 let503)))
  (let ((let508 (ff.mul let422 let1)))
  (let ((let509 (ff.add let508 let0)))
  (let ((let510 mul_n44))
  (let ((let511 (ff.mul let510 let509)))
  (let ((let512 (= let511 let375)))
  (let ((let513 mul_n43))
  (let ((let514 (ff.mul let513 let455)))
  (let ((let515 (= let514 let510)))
  (let ((let516 mul_n42))
  (let ((let517 (ff.mul let516 let455)))
  (let ((let518 (= let517 let513)))
  (let ((let519 mul_n41))
  (let ((let520 (ff.mul let519 let335)))
  (let ((let521 (= let520 let516)))
  (let ((let522 (ff.add let412 let0)))
  (let ((let523 mul_n40))
  (let ((let524 (ff.mul let523 let522)))
  (let ((let525 (= let524 let519)))
  (let ((let526 mul_n39))
  (let ((let527 (ff.mul let526 let509)))
  (let ((let528 (= let527 let523)))
  (let ((let529 b_n6))
  (let ((let530 mul_n38))
  (let ((let531 (ff.mul let530 let529)))
  (let ((let532 (= let531 let526)))
  (let ((let533 mul_n37))
  (let ((let534 (ff.mul let533 let522)))
  (let ((let535 (= let534 let530)))
  (let ((let536 mul_n36))
  (let ((let537 (ff.mul let536 let529)))
  (let ((let538 (= let537 let533)))
  (let ((let539 mul_n35))
  (let ((let540 (ff.mul let539 let353)))
  (let ((let541 (= let540 let536)))
  (let ((let542 (ff.mul let414 let484)))
  (let ((let543 (= let542 let539)))
  (let ((let544 (ff.mul let352 let142)))
  (let ((let545 (ff.add let544 let85)))
  (let ((let546 (ff.mul let545 let349)))
  (let ((let547 (= let546 let351)))
  (let ((let548 g_n7))
  (let ((let549 (ff.mul let548 let1)))
  (let ((let550 (ff.add let549 let0)))
  (let ((let551 mul_n32))
  (let ((let552 (ff.mul let551 let550)))
  (let ((let553 (= let552 let352)))
  (let ((let554 (ff.add let336 let0)))
  (let ((let555 mul_n31))
  (let ((let556 (ff.mul let555 let554)))
  (let ((let557 (= let556 let551)))
  (let ((let558 (ff.mul let382 let475)))
  (let ((let559 (= let558 let555)))
  (let ((let560 mul_n29))
  (let ((let561 (ff.mul let560 let380)))
  (let ((let562 (= let561 let335)))
  (let ((let563 (ff.mul let492 let1)))
  (let ((let564 (ff.add let563 let0)))
  (let ((let565 (ff.mul let414 let564)))
  (let ((let566 (= let565 let560)))
  (let ((let567 mul_n27))
  (let ((let568 mul_n26))
  (let ((let569 (ff.mul let568 let349)))
  (let ((let570 (= let569 let567)))
  (let ((let571 mul_n25))
  (let ((let572 (ff.mul let571 let548)))
  (let ((let573 (= let572 let568)))
  (let ((let574 mul_n24))
  (let ((let575 (ff.mul let574 let529)))
  (let ((let576 (= let575 let571)))
  (let ((let577 (ff.mul let466 let1)))
  (let ((let578 (ff.add let577 let0)))
  (let ((let579 mul_n23))
  (let ((let580 (ff.mul let579 let578)))
  (let ((let581 (= let580 let574)))
  (let ((let582 mul_n22))
  (let ((let583 (ff.mul let582 let437)))
  (let ((let584 (= let583 let579)))
  (let ((let585 mul_n21))
  (let ((let586 (ff.mul let585 let484)))
  (let ((let587 (= let586 let582)))
  (let ((let588 d_n3))
  (let ((let589 mul_n20))
  (let ((let590 (ff.mul let589 let588)))
  (let ((let591 (= let590 let585)))
  (let ((let592 mul_n19))
  (let ((let593 (ff.mul let592 let460)))
  (let ((let594 (= let593 let589)))
  (let ((let595 mul_n18))
  (let ((let596 (ff.mul let595 let479)))
  (let ((let597 (= let596 let592)))
  (let ((let598 (ff.mul let476 let1)))
  (let ((let599 (ff.add let598 let0)))
  (let ((let600 (ff.mul let599 let349)))
  (let ((let601 (= let600 let595)))
  (let ((let602 (ff.mul let564 let462)))
  (let ((let603 (= let602 let422)))
  (let ((let604 (ff.mul let578 let476)))
  (let ((let605 (= let604 let492)))
  (let ((let606 (ff.mul let588 let1)))
  (let ((let607 (ff.add let606 let0)))
  (let ((let608 (ff.mul let548 let607)))
  (let ((let609 (= let608 let476)))
  (let ((let610 mul_n13))
  (let ((let611 (ff.mul let610 let479)))
  (let ((let612 (= let611 let466)))
  (let ((let613 mul_n12))
  (let ((let614 (ff.mul let613 let486)))
  (let ((let615 (= let614 let610)))
  (let ((let616 (ff.mul let529 let1)))
  (let ((let617 (ff.add let616 let0)))
  (let ((let618 (ff.mul let617 let475)))
  (let ((let619 (= let618 let613)))
  (let ((let620 mul_n10))
  (let ((let621 (ff.add let414 let620 let606)))
  (let ((let622 (ff.mul let621 let361)))
  (let ((let623 (= let622 let320)))
  (let ((let624 (ff.mul let588 let85)))
  (let ((let625 (ff.mul let624 let455)))
  (let ((let626 (= let625 let620)))
  (let ((let627 (ff.mul let588 let460)))
  (let ((let628 (= let627 let414)))
  (let ((let629 (and let628 let626 let623 let619 let615 let612 let609 let605 let603 let601 let597 let594 let591 let587 let584 let581 let576 let573 let570 let566 let562 let559 let557 let553 let547 let543 let541 let538 let535 let532 let528 let525 let521 let518 let515 let512 let507 let505 let502 let499 let495 let491 let488 let483 let478 let473 let469 let465 let459 let453 let449 let446 let443 let440 let436 let432 let428 let424 let421 let416 let410 let405 let399 let395 let390 let387 let384 let379 let370 let364 let360 let356 let348 let342 let334 let330 let323)))
  (let ((let630 (= let317 let2)))
  (let ((let631 (not let630)))
  (let ((let632 (= let437 let123)))
  (let ((let633 (= let588 let275)))
  (let ((let634 (= let361 let46)))
  (let ((let635 (= let460 let147)))
  (let ((let636 (= let484 let171)))
  (let ((let637 (= let548 let235)))
  (let ((let638 (= let529 let216)))
  (let ((let639 (= let349 let34)))
  (let ((let640 (and let639 let638 let637 let636 let635 let634 let633 let632)))
  (let ((let641 (and let640 let631 let629 let316)))
  let641
))))))))))))))))))))))))))))))))))))))))))))))))))))))))))))))))))))))))))))))))))))))))))))))))))))))))))))))))))))))))))))))))))))))))))))))))))))))))))))))))))))))))))))))))))))))))))))))))))))))))))))))))))))))))))))))))))))))))))))))))))))))))))))))))))))))))))))))))))))))))))))))))))))))))))))))))))))))))))))))))))))))))))))))))))))))))))))))))))))))))))))))))))))))))))))))))))))))))))))))))))))))))))))))))))))))))))))))))))))))))))))))))))))))))))))))))))))))))))))))))))))))))))))))))))))))))))))))))))))))))))))))))))))))))))))))))))))))))))))))))))))))))))))))))))))))))))))))))))))))))))))))))))))))))))))))))))))))))))))))))))
)
(check-sat)
